0 0 0 0
0 1 0 0
0 2 1 0
0 3 0 0
0 4 0 2
0 5 1 3
0 6 0 6
0 7 0 6
0 8 0 3
0 9 0 7
0 10 2 2
0 11 0 7
0 12 0 11
0 13 0 5
0 14 1 12
0 15 0 7
0 16 0 11
0 17 0 7
0 18 0 13
0 19 0 8
0 20 0 14
0 21 2 12
0 22 0 14
0 23 0 9
0 24 0 12
0 25 0 9
0 26 0 15
0 27 0 17
0 28 0 22
0 29 0 19
0 30 0 18
0 31 0 26
